\ENCODING=ISO-8859-1
\Problem name: MOMKP_p4_n250_m4_ins1

Maximize
 obj:
Subject To
 c1:	10 x1 + 347 x2 + 400 x3 + 899 x4 + 52 x5 + 615 x6 + 601 x7 + 935 x8 + 285 x9 + 340 x10 + 278 x11 + 988 x12 + 482 x13 + 780 x14 + 302 x15 + 591 x16 + 536 x17 + 516 x18 + 215 x19 + 98 x20 + 508 x21 + 952 x22 + 827 x23 + 788 x24 + 145 x25 + 844 x26 + 347 x27 + 229 x28 + 67 x29 + 760 x30 + 929 x31 + 910 x32 + 172 x33 + 427 x34 + 508 x35 + 296 x36 + 749 x37 + 340 x38 + 688 x39 + 85 x40 + 856 x41 + 92 x42 + 141 x43 + 580 x44 + 843 x45 + 760 x46 + 337 x47 + 984 x48 + 424 x49 + 630 x50 + 440 x51 + 267 x52 + 546 x53 + 989 x54 + 507 x55 + 807 x56 + 786 x57 + 578 x58 + 294 x59 + 630 x60 + 435 x61 + 424 x62 + 175 x63 + 114 x64 + 931 x65 + 264 x66 + 252 x67 + 687 x68 + 99 x69 + 210 x70 + 403 x71 + 464 x72 + 721 x73 + 475 x74 + 184 x75 + 343 x76 + 644 x77 + 191 x78 + 19 x79 + 905 x80 + 799 x81 + 152 x82 + 752 x83 + 777 x84 + 674 x85 + 959 x86 + 699 x87 + 572 x88 + 957 x89 + 491 x90 + 723 x91 + 470 x92 + 454 x93 + 696 x94 + 846 x95 + 370 x96 + 925 x97 + 666 x98 + 557 x99 + 551 x100 + 158 x101 + 714 x102 + 170 x103 + 65 x104 + 399 x105 + 280 x106 + 991 x107 + 22 x108 + 219 x109 + 258 x110 + 753 x111 + 787 x112 + 94 x113 + 515 x114 + 581 x115 + 757 x116 + 930 x117 + 95 x118 + 522 x119 + 612 x120 + 657 x121 + 846 x122 + 335 x123 + 988 x124 + 596 x125 + 120 x126 + 198 x127 + 567 x128 + 611 x129 + 384 x130 + 897 x131 + 664 x132 + 718 x133 + 900 x134 + 339 x135 + 793 x136 + 836 x137 + 171 x138 + 459 x139 + 351 x140 + 873 x141 + 400 x142 + 413 x143 + 276 x144 + 861 x145 + 254 x146 + 137 x147 + 165 x148 + 395 x149 + 725 x150 + 24 x151 + 741 x152 + 471 x153 + 780 x154 + 452 x155 + 258 x156 + 68 x157 + 31 x158 + 415 x159 + 575 x160 + 869 x161 + 811 x162 + 519 x163 + 402 x164 + 842 x165 + 303 x166 + 889 x167 + 766 x168 + 790 x169 + 757 x170 + 259 x171 + 740 x172 + 718 x173 + 82 x174 + 262 x175 + 701 x176 + 468 x177 + 386 x178 + 244 x179 + 563 x180 + 813 x181 + 128 x182 + 950 x183 + 689 x184 + 639 x185 + 533 x186 + 633 x187 + 952 x188 + 48 x189 + 557 x190 + 146 x191 + 947 x192 + 627 x193 + 978 x194 + 520 x195 + 741 x196 + 796 x197 + 20 x198 + 561 x199 + 858 x200 + 446 x201 + 518 x202 + 375 x203 + 891 x204 + 530 x205 + 791 x206 + 28 x207 + 606 x208 + 475 x209 + 727 x210 + 732 x211 + 574 x212 + 504 x213 + 448 x214 + 203 x215 + 398 x216 + 985 x217 + 824 x218 + 55 x219 + 572 x220 + 982 x221 + 548 x222 + 430 x223 + 219 x224 + 236 x225 + 326 x226 + 2 x227 + 489 x228 + 114 x229 + 402 x230 + 188 x231 + 619 x232 + 803 x233 + 574 x234 + 640 x235 + 574 x236 + 892 x237 + 808 x238 + 832 x239 + 288 x240 + 25 x241 + 804 x242 + 283 x243 + 189 x244 + 987 x245 + 14 x246 + 383 x247 + 30 x248 + 453 x249 + 477 x250 <= 64414.000000000000000
 c2:	132 x1 + 455 x2 + 55 x3 + 177 x4 + 467 x5 + 912 x6 + 170 x7 + 703 x8 + 920 x9 + 286 x10 + 69 x11 + 826 x12 + 371 x13 + 51 x14 + 751 x15 + 683 x16 + 893 x17 + 692 x18 + 358 x19 + 668 x20 + 489 x21 + 185 x22 + 847 x23 + 786 x24 + 584 x25 + 930 x26 + 519 x27 + 714 x28 + 19 x29 + 728 x30 + 642 x31 + 957 x32 + 898 x33 + 1 x34 + 418 x35 + 110 x36 + 458 x37 + 224 x38 + 947 x39 + 60 x40 + 767 x41 + 605 x42 + 436 x43 + 691 x44 + 566 x45 + 905 x46 + 296 x47 + 320 x48 + 518 x49 + 212 x50 + 446 x51 + 932 x52 + 279 x53 + 258 x54 + 861 x55 + 712 x56 + 404 x57 + 452 x58 + 92 x59 + 227 x60 + 30 x61 + 547 x62 + 202 x63 + 136 x64 + 161 x65 + 746 x66 + 265 x67 + 803 x68 + 226 x69 + 573 x70 + 48 x71 + 61 x72 + 49 x73 + 748 x74 + 193 x75 + 654 x76 + 459 x77 + 844 x78 + 799 x79 + 523 x80 + 748 x81 + 168 x82 + 717 x83 + 184 x84 + 107 x85 + 916 x86 + 267 x87 + 799 x88 + 590 x89 + 11 x90 + 738 x91 + 722 x92 + 336 x93 + 297 x94 + 971 x95 + 61 x96 + 272 x97 + 523 x98 + 218 x99 + 968 x100 + 291 x101 + 53 x102 + 1 x103 + 707 x104 + 653 x105 + 852 x106 + 354 x107 + 699 x108 + 132 x109 + 54 x110 + 508 x111 + 276 x112 + 358 x113 + 959 x114 + 163 x115 + 31 x116 + 108 x117 + 478 x118 + 457 x119 + 135 x120 + 462 x121 + 391 x122 + 921 x123 + 926 x124 + 713 x125 + 233 x126 + 606 x127 + 885 x128 + 895 x129 + 530 x130 + 943 x131 + 108 x132 + 870 x133 + 50 x134 + 989 x135 + 710 x136 + 707 x137 + 190 x138 + 904 x139 + 761 x140 + 360 x141 + 94 x142 + 23 x143 + 972 x144 + 900 x145 + 49 x146 + 583 x147 + 106 x148 + 42 x149 + 551 x150 + 639 x151 + 751 x152 + 261 x153 + 512 x154 + 913 x155 + 56 x156 + 170 x157 + 59 x158 + 882 x159 + 935 x160 + 774 x161 + 497 x162 + 838 x163 + 751 x164 + 802 x165 + 859 x166 + 550 x167 + 117 x168 + 420 x169 + 792 x170 + 331 x171 + 104 x172 + 616 x173 + 580 x174 + 64 x175 + 339 x176 + 6 x177 + 502 x178 + 979 x179 + 832 x180 + 134 x181 + 657 x182 + 676 x183 + 783 x184 + 161 x185 + 590 x186 + 649 x187 + 119 x188 + 874 x189 + 463 x190 + 233 x191 + 948 x192 + 430 x193 + 54 x194 + 503 x195 + 914 x196 + 927 x197 + 455 x198 + 570 x199 + 921 x200 + 543 x201 + 828 x202 + 91 x203 + 482 x204 + 763 x205 + 272 x206 + 470 x207 + 816 x208 + 853 x209 + 214 x210 + 853 x211 + 354 x212 + 303 x213 + 531 x214 + 17 x215 + 776 x216 + 493 x217 + 977 x218 + 874 x219 + 148 x220 + 690 x221 + 581 x222 + 905 x223 + 764 x224 + 694 x225 + 131 x226 + 348 x227 + 941 x228 + 478 x229 + 104 x230 + 826 x231 + 986 x232 + 676 x233 + 297 x234 + 912 x235 + 204 x236 + 361 x237 + 682 x238 + 970 x239 + 484 x240 + 696 x241 + 913 x242 + 446 x243 + 912 x244 + 861 x245 + 125 x246 + 998 x247 + 450 x248 + 590 x249 + 553 x250 <= 63892.500000000000000
 c3:	300 x1 + 967 x2 + 873 x3 + 533 x4 + 803 x5 + 398 x6 + 942 x7 + 487 x8 + 443 x9 + 663 x10 + 382 x11 + 445 x12 + 214 x13 + 351 x14 + 660 x15 + 494 x16 + 257 x17 + 73 x18 + 434 x19 + 2 x20 + 109 x21 + 294 x22 + 568 x23 + 928 x24 + 502 x25 + 465 x26 + 817 x27 + 839 x28 + 307 x29 + 860 x30 + 334 x31 + 334 x32 + 375 x33 + 119 x34 + 143 x35 + 583 x36 + 951 x37 + 43 x38 + 630 x39 + 249 x40 + 206 x41 + 937 x42 + 959 x43 + 406 x44 + 749 x45 + 160 x46 + 182 x47 + 621 x48 + 559 x49 + 911 x50 + 399 x51 + 641 x52 + 852 x53 + 607 x54 + 43 x55 + 649 x56 + 732 x57 + 997 x58 + 873 x59 + 825 x60 + 519 x61 + 543 x62 + 452 x63 + 632 x64 + 51 x65 + 709 x66 + 380 x67 + 283 x68 + 189 x69 + 994 x70 + 759 x71 + 379 x72 + 179 x73 + 642 x74 + 761 x75 + 595 x76 + 265 x77 + 502 x78 + 474 x79 + 405 x80 + 522 x81 + 870 x82 + 831 x83 + 221 x84 + 986 x85 + 959 x86 + 779 x87 + 69 x88 + 890 x89 + 821 x90 + 360 x91 + 915 x92 + 564 x93 + 370 x94 + 680 x95 + 128 x96 + 247 x97 + 864 x98 + 161 x99 + 866 x100 + 781 x101 + 724 x102 + 872 x103 + 364 x104 + 251 x105 + 451 x106 + 733 x107 + 300 x108 + 552 x109 + 337 x110 + 544 x111 + 942 x112 + 586 x113 + 287 x114 + 538 x115 + 119 x116 + 950 x117 + 989 x118 + 744 x119 + 245 x120 + 158 x121 + 201 x122 + 371 x123 + 389 x124 + 256 x125 + 390 x126 + 835 x127 + 564 x128 + 156 x129 + 505 x130 + 989 x131 + 778 x132 + 574 x133 + 576 x134 + 594 x135 + 364 x136 + 973 x137 + 60 x138 + 514 x139 + 561 x140 + 683 x141 + 800 x142 + 17 x143 + 392 x144 + 159 x145 + 362 x146 + 489 x147 + 88 x148 + 767 x149 + 746 x150 + 448 x151 + 367 x152 + 993 x153 + 960 x154 + 92 x155 + 511 x156 + 228 x157 + 59 x158 + 44 x159 + 286 x160 + 706 x161 + 503 x162 + 296 x163 + 149 x164 + 305 x165 + 71 x166 + 556 x167 + 67 x168 + 939 x169 + 652 x170 + 441 x171 + 866 x172 + 154 x173 + 132 x174 + 524 x175 + 515 x176 + 688 x177 + 14 x178 + 811 x179 + 398 x180 + 886 x181 + 221 x182 + 949 x183 + 925 x184 + 123 x185 + 715 x186 + 706 x187 + 761 x188 + 768 x189 + 168 x190 + 979 x191 + 468 x192 + 561 x193 + 595 x194 + 675 x195 + 857 x196 + 62 x197 + 368 x198 + 6 x199 + 761 x200 + 475 x201 + 971 x202 + 472 x203 + 920 x204 + 277 x205 + 748 x206 + 242 x207 + 135 x208 + 54 x209 + 420 x210 + 329 x211 + 539 x212 + 35 x213 + 742 x214 + 847 x215 + 237 x216 + 708 x217 + 801 x218 + 789 x219 + 299 x220 + 51 x221 + 758 x222 + 89 x223 + 352 x224 + 121 x225 + 237 x226 + 413 x227 + 232 x228 + 53 x229 + 268 x230 + 432 x231 + 566 x232 + 878 x233 + 18 x234 + 570 x235 + 873 x236 + 787 x237 + 473 x238 + 962 x239 + 212 x240 + 409 x241 + 851 x242 + 793 x243 + 677 x244 + 902 x245 + 583 x246 + 588 x247 + 225 x248 + 947 x249 + 883 x250 <= 64243.500000000000000
 c4:	614 x1 + 270 x2 + 71 x3 + 436 x4 + 669 x5 + 312 x6 + 289 x7 + 908 x8 + 494 x9 + 816 x10 + 606 x11 + 979 x12 + 171 x13 + 202 x14 + 948 x15 + 817 x16 + 316 x17 + 94 x18 + 6 x19 + 3 x20 + 716 x21 + 2 x22 + 177 x23 + 532 x24 + 653 x25 + 966 x26 + 222 x27 + 886 x28 + 398 x29 + 408 x30 + 10 x31 + 113 x32 + 380 x33 + 32 x34 + 242 x35 + 987 x36 + 327 x37 + 22 x38 + 706 x39 + 112 x40 + 295 x41 + 835 x42 + 936 x43 + 580 x44 + 870 x45 + 454 x46 + 989 x47 + 183 x48 + 992 x49 + 936 x50 + 372 x51 + 209 x52 + 616 x53 + 594 x54 + 982 x55 + 246 x56 + 748 x57 + 237 x58 + 389 x59 + 203 x60 + 44 x61 + 601 x62 + 799 x63 + 434 x64 + 679 x65 + 163 x66 + 29 x67 + 602 x68 + 912 x69 + 753 x70 + 749 x71 + 915 x72 + 887 x73 + 264 x74 + 76 x75 + 864 x76 + 954 x77 + 472 x78 + 40 x79 + 653 x80 + 341 x81 + 661 x82 + 446 x83 + 835 x84 + 87 x85 + 674 x86 + 183 x87 + 34 x88 + 383 x89 + 73 x90 + 377 x91 + 727 x92 + 375 x93 + 758 x94 + 259 x95 + 814 x96 + 872 x97 + 149 x98 + 320 x99 + 114 x100 + 654 x101 + 841 x102 + 295 x103 + 866 x104 + 806 x105 + 527 x106 + 714 x107 + 190 x108 + 157 x109 + 705 x110 + 879 x111 + 627 x112 + 731 x113 + 287 x114 + 140 x115 + 34 x116 + 864 x117 + 763 x118 + 182 x119 + 496 x120 + 21 x121 + 740 x122 + 587 x123 + 826 x124 + 782 x125 + 126 x126 + 998 x127 + 479 x128 + 638 x129 + 232 x130 + 587 x131 + 994 x132 + 796 x133 + 222 x134 + 731 x135 + 544 x136 + 213 x137 + 727 x138 + 658 x139 + 399 x140 + 761 x141 + 738 x142 + 16 x143 + 688 x144 + 762 x145 + 277 x146 + 789 x147 + 134 x148 + 691 x149 + 982 x150 + 345 x151 + 183 x152 + 54 x153 + 717 x154 + 698 x155 + 739 x156 + 201 x157 + 553 x158 + 199 x159 + 674 x160 + 425 x161 + 634 x162 + 957 x163 + 123 x164 + 119 x165 + 968 x166 + 640 x167 + 315 x168 + 498 x169 + 490 x170 + 68 x171 + 130 x172 + 894 x173 + 449 x174 + 236 x175 + 980 x176 + 659 x177 + 310 x178 + 11 x179 + 566 x180 + 929 x181 + 513 x182 + 241 x183 + 512 x184 + 339 x185 + 468 x186 + 352 x187 + 114 x188 + 417 x189 + 719 x190 + 712 x191 + 442 x192 + 306 x193 + 725 x194 + 375 x195 + 21 x196 + 489 x197 + 143 x198 + 645 x199 + 35 x200 + 680 x201 + 351 x202 + 224 x203 + 40 x204 + 690 x205 + 784 x206 + 291 x207 + 440 x208 + 878 x209 + 284 x210 + 612 x211 + 939 x212 + 945 x213 + 142 x214 + 14 x215 + 82 x216 + 122 x217 + 137 x218 + 236 x219 + 241 x220 + 684 x221 + 904 x222 + 191 x223 + 845 x224 + 584 x225 + 160 x226 + 209 x227 + 383 x228 + 849 x229 + 947 x230 + 571 x231 + 889 x232 + 236 x233 + 62 x234 + 757 x235 + 817 x236 + 367 x237 + 357 x238 + 668 x239 + 260 x240 + 265 x241 + 774 x242 + 217 x243 + 501 x244 + 955 x245 + 483 x246 + 703 x247 + 590 x248 + 582 x249 + 852 x250 <= 61486.000000000000000
Bounds
 0 <= x1 <= 1
 0 <= x2 <= 1
 0 <= x3 <= 1
 0 <= x4 <= 1
 0 <= x5 <= 1
 0 <= x6 <= 1
 0 <= x7 <= 1
 0 <= x8 <= 1
 0 <= x9 <= 1
 0 <= x10 <= 1
 0 <= x11 <= 1
 0 <= x12 <= 1
 0 <= x13 <= 1
 0 <= x14 <= 1
 0 <= x15 <= 1
 0 <= x16 <= 1
 0 <= x17 <= 1
 0 <= x18 <= 1
 0 <= x19 <= 1
 0 <= x20 <= 1
 0 <= x21 <= 1
 0 <= x22 <= 1
 0 <= x23 <= 1
 0 <= x24 <= 1
 0 <= x25 <= 1
 0 <= x26 <= 1
 0 <= x27 <= 1
 0 <= x28 <= 1
 0 <= x29 <= 1
 0 <= x30 <= 1
 0 <= x31 <= 1
 0 <= x32 <= 1
 0 <= x33 <= 1
 0 <= x34 <= 1
 0 <= x35 <= 1
 0 <= x36 <= 1
 0 <= x37 <= 1
 0 <= x38 <= 1
 0 <= x39 <= 1
 0 <= x40 <= 1
 0 <= x41 <= 1
 0 <= x42 <= 1
 0 <= x43 <= 1
 0 <= x44 <= 1
 0 <= x45 <= 1
 0 <= x46 <= 1
 0 <= x47 <= 1
 0 <= x48 <= 1
 0 <= x49 <= 1
 0 <= x50 <= 1
 0 <= x51 <= 1
 0 <= x52 <= 1
 0 <= x53 <= 1
 0 <= x54 <= 1
 0 <= x55 <= 1
 0 <= x56 <= 1
 0 <= x57 <= 1
 0 <= x58 <= 1
 0 <= x59 <= 1
 0 <= x60 <= 1
 0 <= x61 <= 1
 0 <= x62 <= 1
 0 <= x63 <= 1
 0 <= x64 <= 1
 0 <= x65 <= 1
 0 <= x66 <= 1
 0 <= x67 <= 1
 0 <= x68 <= 1
 0 <= x69 <= 1
 0 <= x70 <= 1
 0 <= x71 <= 1
 0 <= x72 <= 1
 0 <= x73 <= 1
 0 <= x74 <= 1
 0 <= x75 <= 1
 0 <= x76 <= 1
 0 <= x77 <= 1
 0 <= x78 <= 1
 0 <= x79 <= 1
 0 <= x80 <= 1
 0 <= x81 <= 1
 0 <= x82 <= 1
 0 <= x83 <= 1
 0 <= x84 <= 1
 0 <= x85 <= 1
 0 <= x86 <= 1
 0 <= x87 <= 1
 0 <= x88 <= 1
 0 <= x89 <= 1
 0 <= x90 <= 1
 0 <= x91 <= 1
 0 <= x92 <= 1
 0 <= x93 <= 1
 0 <= x94 <= 1
 0 <= x95 <= 1
 0 <= x96 <= 1
 0 <= x97 <= 1
 0 <= x98 <= 1
 0 <= x99 <= 1
 0 <= x100 <= 1
 0 <= x101 <= 1
 0 <= x102 <= 1
 0 <= x103 <= 1
 0 <= x104 <= 1
 0 <= x105 <= 1
 0 <= x106 <= 1
 0 <= x107 <= 1
 0 <= x108 <= 1
 0 <= x109 <= 1
 0 <= x110 <= 1
 0 <= x111 <= 1
 0 <= x112 <= 1
 0 <= x113 <= 1
 0 <= x114 <= 1
 0 <= x115 <= 1
 0 <= x116 <= 1
 0 <= x117 <= 1
 0 <= x118 <= 1
 0 <= x119 <= 1
 0 <= x120 <= 1
 0 <= x121 <= 1
 0 <= x122 <= 1
 0 <= x123 <= 1
 0 <= x124 <= 1
 0 <= x125 <= 1
 0 <= x126 <= 1
 0 <= x127 <= 1
 0 <= x128 <= 1
 0 <= x129 <= 1
 0 <= x130 <= 1
 0 <= x131 <= 1
 0 <= x132 <= 1
 0 <= x133 <= 1
 0 <= x134 <= 1
 0 <= x135 <= 1
 0 <= x136 <= 1
 0 <= x137 <= 1
 0 <= x138 <= 1
 0 <= x139 <= 1
 0 <= x140 <= 1
 0 <= x141 <= 1
 0 <= x142 <= 1
 0 <= x143 <= 1
 0 <= x144 <= 1
 0 <= x145 <= 1
 0 <= x146 <= 1
 0 <= x147 <= 1
 0 <= x148 <= 1
 0 <= x149 <= 1
 0 <= x150 <= 1
 0 <= x151 <= 1
 0 <= x152 <= 1
 0 <= x153 <= 1
 0 <= x154 <= 1
 0 <= x155 <= 1
 0 <= x156 <= 1
 0 <= x157 <= 1
 0 <= x158 <= 1
 0 <= x159 <= 1
 0 <= x160 <= 1
 0 <= x161 <= 1
 0 <= x162 <= 1
 0 <= x163 <= 1
 0 <= x164 <= 1
 0 <= x165 <= 1
 0 <= x166 <= 1
 0 <= x167 <= 1
 0 <= x168 <= 1
 0 <= x169 <= 1
 0 <= x170 <= 1
 0 <= x171 <= 1
 0 <= x172 <= 1
 0 <= x173 <= 1
 0 <= x174 <= 1
 0 <= x175 <= 1
 0 <= x176 <= 1
 0 <= x177 <= 1
 0 <= x178 <= 1
 0 <= x179 <= 1
 0 <= x180 <= 1
 0 <= x181 <= 1
 0 <= x182 <= 1
 0 <= x183 <= 1
 0 <= x184 <= 1
 0 <= x185 <= 1
 0 <= x186 <= 1
 0 <= x187 <= 1
 0 <= x188 <= 1
 0 <= x189 <= 1
 0 <= x190 <= 1
 0 <= x191 <= 1
 0 <= x192 <= 1
 0 <= x193 <= 1
 0 <= x194 <= 1
 0 <= x195 <= 1
 0 <= x196 <= 1
 0 <= x197 <= 1
 0 <= x198 <= 1
 0 <= x199 <= 1
 0 <= x200 <= 1
 0 <= x201 <= 1
 0 <= x202 <= 1
 0 <= x203 <= 1
 0 <= x204 <= 1
 0 <= x205 <= 1
 0 <= x206 <= 1
 0 <= x207 <= 1
 0 <= x208 <= 1
 0 <= x209 <= 1
 0 <= x210 <= 1
 0 <= x211 <= 1
 0 <= x212 <= 1
 0 <= x213 <= 1
 0 <= x214 <= 1
 0 <= x215 <= 1
 0 <= x216 <= 1
 0 <= x217 <= 1
 0 <= x218 <= 1
 0 <= x219 <= 1
 0 <= x220 <= 1
 0 <= x221 <= 1
 0 <= x222 <= 1
 0 <= x223 <= 1
 0 <= x224 <= 1
 0 <= x225 <= 1
 0 <= x226 <= 1
 0 <= x227 <= 1
 0 <= x228 <= 1
 0 <= x229 <= 1
 0 <= x230 <= 1
 0 <= x231 <= 1
 0 <= x232 <= 1
 0 <= x233 <= 1
 0 <= x234 <= 1
 0 <= x235 <= 1
 0 <= x236 <= 1
 0 <= x237 <= 1
 0 <= x238 <= 1
 0 <= x239 <= 1
 0 <= x240 <= 1
 0 <= x241 <= 1
 0 <= x242 <= 1
 0 <= x243 <= 1
 0 <= x244 <= 1
 0 <= x245 <= 1
 0 <= x246 <= 1
 0 <= x247 <= 1
 0 <= x248 <= 1
 0 <= x249 <= 1
 0 <= x250 <= 1
Binaries
 x1 x2 x3 x4 x5 x6 x7 x8 x9 x10 x11 x12 x13 x14 x15 x16 x17 x18 x19 x20 x21 x22 x23 x24 x25 x26 x27 x28 x29 x30 x31 x32 x33 x34 x35 x36 x37 x38 x39 x40 x41 x42 x43 x44 x45 x46 x47 x48 x49 x50 x51 x52 x53 x54 x55 x56 x57 x58 x59 x60 x61 x62 x63 x64 x65 x66 x67 x68 x69 x70 x71 x72 x73 x74 x75 x76 x77 x78 x79 x80 x81 x82 x83 x84 x85 x86 x87 x88 x89 x90 x91 x92 x93 x94 x95 x96 x97 x98 x99 x100 x101 x102 x103 x104 x105 x106 x107 x108 x109 x110 x111 x112 x113 x114 x115 x116 x117 x118 x119 x120 x121 x122 x123 x124 x125 x126 x127 x128 x129 x130 x131 x132 x133 x134 x135 x136 x137 x138 x139 x140 x141 x142 x143 x144 x145 x146 x147 x148 x149 x150 x151 x152 x153 x154 x155 x156 x157 x158 x159 x160 x161 x162 x163 x164 x165 x166 x167 x168 x169 x170 x171 x172 x173 x174 x175 x176 x177 x178 x179 x180 x181 x182 x183 x184 x185 x186 x187 x188 x189 x190 x191 x192 x193 x194 x195 x196 x197 x198 x199 x200 x201 x202 x203 x204 x205 x206 x207 x208 x209 x210 x211 x212 x213 x214 x215 x216 x217 x218 x219 x220 x221 x222 x223 x224 x225 x226 x227 x228 x229 x230 x231 x232 x233 x234 x235 x236 x237 x238 x239 x240 x241 x242 x243 x244 x245 x246 x247 x248 x249 x250
End